(set-info :origin "NTS benchmark converted to SMT-LIB2 using Eldarica (http://lara.epfl.ch/w/eldarica)")
(set-logic HORN)
(declare-fun main_q2 (Int Int Int Int Int Int) Bool)
(declare-fun main_qf () Bool)
(declare-fun main_q0 (Int Int Int Int Int Int) Bool)
(declare-fun main_q1 (Int Int Int Int Int Int) Bool)
(declare-fun buildheap_q5 (Int Int Int Int Int Int) Bool)
(declare-fun buildheap_q4 (Int Int Int Int Int Int Int Int Int Int) Bool)
(declare-fun buildheap_q3 (Int Int Int Int Int Int Int Int Int Int) Bool)
(declare-fun buildheap_q0 (Int Int Int Int Int Int Int Int Int Int) Bool)
(declare-fun buildheap_q1 (Int Int Int Int Int Int Int Int Int Int) Bool)
(declare-fun buildheap_q2 (Int Int Int Int Int Int Int Int Int Int) Bool)
(assert(forall((?A Int)(?B Int)(?C Int)(?D Int)(?E Int)(?F Int))(=>(and (main_q2 ?A ?B ?C ?D ?E ?F)(<= ?D ?F)) main_qf)))
(assert(not (exists((?A Int)(?B Int)(?C Int)(?D Int)(?E Int)(?F Int))(and (main_q2 ?A ?B ?C ?D ?E ?F)(> ?D ?F)))))
(assert(forall((?A Int)(?B Int)(?C Int)(?D Int)(?E Int)(?F Int)(?G Int)(?H Int)(?I Int))(=>(and (main_q0 ?A ?B ?C ?G ?H ?I)(and (and (>= ?F 0) (>= ?E 0)) (<= ?E ?F))) (main_q1 ?A ?B ?C ?D ?E ?F))))
(assert(forall((?A Int)(?B Int)(?C Int)(?D Int)(?E Int)(?F Int))(=>(and (and (= ?A ?D) (= ?B ?E)) (= ?C ?F)) (main_q0 ?A ?B ?C ?D ?E ?F))))
(assert(forall((?A Int)(?B Int)(?C Int)(?D Int)(?E Int)(?F Int)(?G Int)(?H Int)(?I Int)(?J Int)(?K Int)(?L Int)(?M Int)(?N Int)(?O Int))(=>(and (buildheap_q4 ?A ?B ?G ?H ?C ?I ?J ?K ?L ?M)(and (= ?D 0) (and (and (and (= ?J ?E) (= ?K ?N)) (= ?L ?O)) (= ?M ?F)))) (buildheap_q5 ?A ?B ?C ?D ?E ?F))))
(assert(forall((?A Int)(?B Int)(?C Int)(?D Int)(?E Int)(?F Int)(?G Int)(?H Int)(?I Int)(?J Int)(?K Int)(?L Int)(?M Int)(?N Int)(?O Int))(=>(and (buildheap_q3 ?A ?B ?G ?H ?C ?I ?J ?K ?L ?M)(and (= ?D (+ (+ ?K ?L) 1)) (and (and (and (= ?J ?E) (= ?K ?N)) (= ?L ?O)) (= ?M ?F)))) (buildheap_q5 ?A ?B ?C ?D ?E ?F))))
(assert(forall((?A Int)(?B Int)(?C Int)(?D Int)(?E Int)(?F Int)(?G Int)(?H Int)(?I Int)(?J Int)(?K Int)(?L Int)(?M Int)(?N Int)(?O Int))(=>(and (buildheap_q0 ?A ?B ?C ?D ?E ?K ?L ?M ?N ?O)(and (> ?O (div ?L 2)) (and (and (and (and (= ?K ?F) (= ?L ?G)) (= ?M ?H)) (= ?N ?I)) (= ?O ?J)))) (buildheap_q4 ?A ?B ?C ?D ?E ?F ?G ?H ?I ?J))))
(assert(forall((?A Int)(?B Int)(?C Int)(?D Int)(?E Int)(?F Int)(?G Int)(?H Int)(?I Int)(?J Int)(?K Int)(?L Int)(?M Int)(?N Int)(?O Int))(=>(and (buildheap_q0 ?A ?B ?C ?D ?E ?K ?L ?M ?N ?O)(and (<= ?O (div ?L 2)) (and (and (and (and (= ?K ?F) (= ?L ?G)) (= ?M ?H)) (= ?N ?I)) (= ?O ?J)))) (buildheap_q1 ?A ?B ?C ?D ?E ?F ?G ?H ?I ?J))))
(assert(forall((?A Int)(?B Int)(?C Int)(?D Int)(?E Int)(?F Int)(?G Int)(?H Int)(?I Int)(?J Int)(?K Int)(?L Int)(?M Int)(?N Int)(?O Int)(?P Int)(?Q Int)(?R Int)(?S Int)(?T Int)(?U Int))(=>(and (and (and (and (buildheap_q1 ?A ?B ?C ?D ?E ?K ?L ?M ?N ?O)(and (= ?P ?L) (= ?Q (* 2 ?O))))(buildheap_q5 ?R ?P ?Q ?S ?T ?U))(= ?S ?H))(and (and (and (= ?K ?F) (= ?L ?G)) (= ?N ?I)) (= ?O ?J))) (buildheap_q2 ?A ?B ?C ?D ?E ?F ?G ?H ?I ?J))))
(assert(forall((?A Int)(?B Int)(?C Int)(?D Int)(?E Int)(?F Int)(?G Int)(?H Int)(?I Int)(?J Int)(?K Int)(?L Int)(?M Int)(?N Int)(?O Int)(?P Int)(?Q Int)(?R Int)(?S Int)(?T Int))(=>(and (and (buildheap_q1 ?K ?L ?M ?N ?O ?P ?Q ?R ?S ?T)(and (= ?B ?Q) (= ?E (* 2 ?T))))(and (and (= ?A ?F) (= ?B ?G)) (= ?E ?J))) (buildheap_q0 ?A ?B ?C ?D ?E ?F ?G ?H ?I ?J))))
(assert(forall((?A Int)(?B Int)(?C Int)(?D Int)(?E Int)(?F Int)(?G Int)(?H Int)(?I Int)(?J Int)(?K Int)(?L Int)(?M Int)(?N Int)(?O Int)(?P Int)(?Q Int)(?R Int)(?S Int)(?T Int)(?U Int))(=>(and (and (and (and (buildheap_q2 ?A ?B ?C ?D ?E ?K ?L ?M ?N ?O)(and (= ?P ?L) (= ?Q (+ (* 2 ?O) 1))))(buildheap_q5 ?R ?P ?Q ?S ?T ?U))(= ?S ?I))(and (and (and (= ?K ?F) (= ?L ?G)) (= ?M ?H)) (= ?O ?J))) (buildheap_q3 ?A ?B ?C ?D ?E ?F ?G ?H ?I ?J))))
(assert(forall((?A Int)(?B Int)(?C Int)(?D Int)(?E Int)(?F Int)(?G Int)(?H Int)(?I Int)(?J Int)(?K Int)(?L Int)(?M Int)(?N Int)(?O Int)(?P Int)(?Q Int)(?R Int)(?S Int)(?T Int))(=>(and (and (buildheap_q2 ?K ?L ?M ?N ?O ?P ?Q ?R ?S ?T)(and (= ?B ?Q) (= ?E (+ (* 2 ?T) 1))))(and (and (= ?A ?F) (= ?B ?G)) (= ?E ?J))) (buildheap_q0 ?A ?B ?C ?D ?E ?F ?G ?H ?I ?J))))
(assert(forall((?A Int)(?B Int)(?C Int)(?D Int)(?E Int)(?F Int)(?G Int)(?H Int)(?I Int)(?J Int)(?K Int)(?L Int)(?M Int)(?N Int)(?O Int))(=>(and (and (and (and (main_q1 ?A ?B ?C ?G ?H ?I)(and (= ?J ?I) (= ?K ?H)))(buildheap_q5 ?L ?J ?K ?M ?N ?O))(= ?M ?D))(and (= ?H ?E) (= ?I ?F))) (main_q2 ?A ?B ?C ?D ?E ?F))))
(assert(forall((?A Int)(?B Int)(?C Int)(?D Int)(?E Int)(?F Int)(?G Int)(?H Int)(?I Int)(?J Int)(?K Int)(?L Int)(?M Int)(?N Int)(?O Int)(?P Int))(=>(and (and (main_q1 ?K ?L ?M ?N ?O ?P)(and (= ?B ?P) (= ?E ?O)))(and (and (= ?A ?F) (= ?B ?G)) (= ?E ?J))) (buildheap_q0 ?A ?B ?C ?D ?E ?F ?G ?H ?I ?J))))
(check-sat)
